17 965
525 7 490 7 335 11
525 7 490 7 335 11
525 7 490 7 335 11
525 7 490 7 335 11
525 7 490 7 335 11
528 7 504 7 413 7 254 9 80 11 923 15 770 20
528 7 504 7 413 7 254 9 80 11 923 15 770 20
525 7 482 7 365 7 115 9 943 13
525 7 482 7 394 7 212 9 29 11 822 15 623 21
525 7 482 7 365 7 115 9 943 13
525 7 482 7 365 7 115 9 943 13
525 7 482 7 365 7 115 9 943 13
525 7 482 7 365 7 115 9 943 13
525 7 504 7 362 7 209 9 25 11 818 15 624 21
525 7 504 7 362 7 209 9 25 11 818 15 624 21
525 7 504 7 362 7 209 9 25 11 818 15 624 21
525 7 504 7 362 7 209 9 25 11 818 15 624 21
